Translating instance to solver...

GLPSOL--GLPK LP/MIP Solver 5.0
Parameter(s) specified in the command line:
 --tmlim 28800 --mipgap 0.0 --write /tmp/tmp_nm0ekt3.glpk.raw --wglp /tmp/tmp1ze2ahk2.glpk.glp
 --cpxlp /tmp/tmp2m5_bczr.pyomo.lp
Reading problem data from '/tmp/tmp2m5_bczr.pyomo.lp'...
/tmp/tmp2m5_bczr.pyomo.lp:131696: warning: lower bound of variable 'x2' redefined
/tmp/tmp2m5_bczr.pyomo.lp:131696: warning: upper bound of variable 'x2' redefined
20953 rows, 14603 columns, 54155 non-zeros
14603 integer variables, 14579 of which are binary
146275 lines were read
Writing problem data to '/tmp/tmp1ze2ahk2.glpk.glp'...
99256 lines were written
GLPK Integer Optimizer 5.0
20953 rows, 14603 columns, 54155 non-zeros
14603 integer variables, 14579 of which are binary
Preprocessing...
216 hidden packing inequaliti(es) were detected
2064 hidden covering inequaliti(es) were detected
155 constraint coefficient(s) were reduced
8668 rows, 4206 columns, 22493 non-zeros
4206 integer variables, 4183 of which are binary
Scaling...
 A: min|aij| =  1.000e+00  max|aij| =  2.300e+01  ratio =  2.300e+01
GM: min|aij| =  5.956e-01  max|aij| =  1.679e+00  ratio =  2.819e+00
EQ: min|aij| =  3.556e-01  max|aij| =  1.000e+00  ratio =  2.812e+00
2N: min|aij| =  2.500e-01  max|aij| =  1.625e+00  ratio =  6.500e+00
Constructing initial basis...
Size of triangular part is 8667
Solving LP relaxation...
GLPK Simplex Optimizer 5.0
8668 rows, 4206 columns, 22493 non-zeros
      0: obj =   0.000000000e+00 inf =   1.574e+02 (177)
    646: obj =   5.255209750e+00 inf =   4.293e-15 (0) 4
*  1336: obj =   2.359854829e+00 inf =   1.787e-14 (0) 5
OPTIMAL LP SOLUTION FOUND
Integer optimization begins...
Long-step dual simplex will be used
+  1336: mip =     not found yet >=              -inf        (1; 0)
+  5413: mip =     not found yet >=   2.439466409e+00        (96; 3)
+ 10655: mip =     not found yet >=   2.536999465e+00        (209; 6)
+ 14273: mip =     not found yet >=   2.538766277e+00        (334; 9)
+ 18622: mip =     not found yet >=   2.546575206e+00        (414; 13)
+ 21656: mip =     not found yet >=   2.566494800e+00        (503; 16)
+ 27223: mip =     not found yet >=   2.569485905e+00        (574; 21)
+ 30527: mip =     not found yet >=   2.575829967e+00        (687; 24)
+ 31663: mip =     not found yet >=   2.578976380e+00        (822; 25)
+ 36218: mip =     not found yet >=   2.584294134e+00        (905; 29)
+ 39009: mip =     not found yet >=   2.591237000e+00        (1096; 31)
+ 42913: mip =     not found yet >=   2.616927184e+00        (1183; 36)
Time used: 60.0 secs.  Memory used: 25.7 Mb.
+ 44945: mip =     not found yet >=   2.627418911e+00        (1277; 38)
+ 49900: mip =     not found yet >=   2.645844643e+00        (1372; 46)
+ 52968: mip =     not found yet >=   2.652672757e+00        (1560; 49)
+ 56169: mip =     not found yet >=   2.655383165e+00        (1654; 55)
+ 59597: mip =     not found yet >=   2.667543706e+00        (1799; 61)
+ 62270: mip =     not found yet >=   2.669485278e+00        (1883; 63)
+ 64560: mip =     not found yet >=   2.673476404e+00        (1963; 65)
+ 68181: mip =     not found yet >=   2.678022493e+00        (2093; 68)
+ 70360: mip =     not found yet >=   2.681562208e+00        (2326; 71)
+ 72775: mip =     not found yet >=   2.687470929e+00        (2534; 75)
+ 73050: >>>>>   4.697128000e+00 >=   2.687470929e+00  42.8% (2553; 75)
+ 77115: mip =   4.697128000e+00 >=   2.698961905e+00  42.5% (2518; 387)
+ 80627: mip =   4.697128000e+00 >=   2.717673000e+00  42.1% (2613; 392)
Time used: 120.1 secs.  Memory used: 33.9 Mb.
+ 84973: mip =   4.697128000e+00 >=   2.728020463e+00  41.9% (2753; 400)
+ 87241: mip =   4.697128000e+00 >=   2.731494361e+00  41.8% (2915; 403)
+ 90444: mip =   4.697128000e+00 >=   2.741539778e+00  41.6% (3047; 407)
+ 92420: mip =   4.697128000e+00 >=   2.744409583e+00  41.6% (3204; 409)
+ 94662: mip =   4.697128000e+00 >=   2.754455000e+00  41.4% (3313; 412)
+ 97758: mip =   4.697128000e+00 >=   2.760959090e+00  41.2% (3465; 417)
+101111: mip =   4.697128000e+00 >=   2.768066712e+00  41.1% (3591; 423)
+103570: mip =   4.697128000e+00 >=   2.769883538e+00  41.0% (3819; 426)
+108243: mip =   4.697128000e+00 >=   2.776418949e+00  40.9% (3943; 434)
+111101: mip =   4.697128000e+00 >=   2.778939543e+00  40.8% (4112; 438)
+114955: mip =   4.697128000e+00 >=   2.781209947e+00  40.8% (4244; 443)
+118720: mip =   4.697128000e+00 >=   2.786064000e+00  40.7% (4350; 448)
Time used: 180.1 secs.  Memory used: 42.9 Mb.
+123215: mip =   4.697128000e+00 >=   2.792747143e+00  40.5% (4479; 454)
+125647: mip =   4.697128000e+00 >=   2.796524200e+00  40.5% (4570; 458)
+128485: mip =   4.697128000e+00 >=   2.800736315e+00  40.4% (4661; 463)
+130717: >>>>>   4.085346000e+00 >=   2.802982250e+00  31.4% (4724; 466)
+133475: >>>>>   3.329455000e+00 >=   2.802982250e+00  15.8% (3994; 2107)
+136466: mip =   3.329455000e+00 >=   2.809144620e+00  15.6% (1479; 7276)
+141299: mip =   3.329455000e+00 >=   2.818427681e+00  15.3% (1533; 7296)
+146107: mip =   3.329455000e+00 >=   2.826436000e+00  15.1% (1572; 7316)
+149903: mip =   3.329455000e+00 >=   2.833803474e+00  14.9% (1633; 7329)
+153547: mip =   3.329455000e+00 >=   2.838669533e+00  14.7% (1686; 7340)
+156853: mip =   3.329455000e+00 >=   2.840615311e+00  14.7% (1733; 7349)
+160486: mip =   3.329455000e+00 >=   2.848306265e+00  14.5% (1768; 7364)
+164573: mip =   3.329455000e+00 >=   2.856300032e+00  14.2% (1846; 7377)
Time used: 240.1 secs.  Memory used: 45.0 Mb.
+170142: mip =   3.329455000e+00 >=   2.867445917e+00  13.9% (1898; 7394)
+173686: mip =   3.329455000e+00 >=   2.879455000e+00  13.5% (1954; 7413)
+177879: mip =   3.329455000e+00 >=   2.882066222e+00  13.4% (2080; 7435)
+182768: mip =   3.329455000e+00 >=   2.892352000e+00  13.1% (2225; 7465)
+187741: mip =   3.329455000e+00 >=   2.901503109e+00  12.9% (2277; 7493)
+189817: mip =   3.329455000e+00 >=   2.901767235e+00  12.8% (2323; 7498)
+194554: mip =   3.329455000e+00 >=   2.913813682e+00  12.5% (2366; 7531)
+197130: mip =   3.329455000e+00 >=   2.920268905e+00  12.3% (2415; 7548)
+200340: mip =   3.329455000e+00 >=   2.924432950e+00  12.2% (2474; 7563)
+203568: mip =   3.329455000e+00 >=   2.929455000e+00  12.0% (2530; 7580)
+206899: mip =   3.329455000e+00 >=   2.930436833e+00  12.0% (2593; 7595)
+210163: mip =   3.329455000e+00 >=   2.931117143e+00  12.0% (2652; 7608)
Time used: 300.1 secs.  Memory used: 50.3 Mb.
+215819: mip =   3.329455000e+00 >=   2.936166571e+00  11.8% (2698; 7637)
+220165: mip =   3.329455000e+00 >=   2.943206857e+00  11.6% (2722; 7660)
+224043: mip =   3.329455000e+00 >=   2.950045231e+00  11.4% (2761; 7682)
+228138: mip =   3.329455000e+00 >=   2.952603834e+00  11.3% (2769; 7704)
+231811: mip =   3.329455000e+00 >=   2.953839571e+00  11.3% (2796; 7723)
+235686: mip =   3.329455000e+00 >=   2.957854667e+00  11.2% (2857; 7743)
+238950: mip =   3.329455000e+00 >=   2.960446926e+00  11.1% (2927; 7759)
+243249: mip =   3.329455000e+00 >=   2.969182500e+00  10.8% (2945; 7797)
+247385: mip =   3.329455000e+00 >=   2.973941375e+00  10.7% (3001; 7821)
+251914: mip =   3.329455000e+00 >=   2.980058800e+00  10.5% (3063; 7855)
+257511: mip =   3.329455000e+00 >=   2.982852825e+00  10.4% (3128; 7886)
+261498: mip =   3.329455000e+00 >=   2.987996968e+00  10.3% (3158; 7915)
Time used: 360.1 secs.  Memory used: 60.6 Mb.
+265684: mip =   3.329455000e+00 >=   2.990525890e+00  10.2% (3203; 7932)
+272059: mip =   3.329455000e+00 >=   2.990699174e+00  10.2% (3288; 7955)
+277381: mip =   3.329455000e+00 >=   2.992702400e+00  10.1% (3351; 7977)
+279624: mip =   3.329455000e+00 >=   2.994164125e+00  10.1% (3385; 7987)
+283560: mip =   3.329455000e+00 >=   3.001064000e+00   9.9% (3403; 8014)
+286469: mip =   3.329455000e+00 >=   3.003493215e+00   9.8% (3541; 8034)
+288826: mip =   3.329455000e+00 >=   3.003493215e+00   9.8% (3636; 8042)
+291866: mip =   3.329455000e+00 >=   3.003535063e+00   9.8% (3728; 8050)
+295980: mip =   3.329455000e+00 >=   3.007489294e+00   9.7% (3759; 8096)
+300477: mip =   3.329455000e+00 >=   3.011064000e+00   9.6% (3799; 8123)
+305287: mip =   3.329455000e+00 >=   3.016300974e+00   9.4% (3842; 8159)
+308541: mip =   3.329455000e+00 >=   3.021021870e+00   9.3% (3902; 8179)
Time used: 420.2 secs.  Memory used: 74.6 Mb.
+315944: mip =   3.329455000e+00 >=   3.023564000e+00   9.2% (3922; 8264)
+321603: mip =   3.329455000e+00 >=   3.023564000e+00   9.2% (3984; 8297)
+326603: mip =   3.329455000e+00 >=   3.023564000e+00   9.2% (4011; 8332)
+329083: mip =   3.329455000e+00 >=   3.023564000e+00   9.2% (4040; 8343)
+333775: mip =   3.329455000e+00 >=   3.025170636e+00   9.1% (4044; 8378)
+337867: mip =   3.329455000e+00 >=   3.026509500e+00   9.1% (4066; 8407)
+341533: mip =   3.329455000e+00 >=   3.027098600e+00   9.1% (4116; 8442)
+346066: mip =   3.329455000e+00 >=   3.027098600e+00   9.1% (4233; 8491)
+351382: mip =   3.329455000e+00 >=   3.027098600e+00   9.1% (4348; 8515)
+355374: mip =   3.329455000e+00 >=   3.028613429e+00   9.0% (4382; 8564)
+360213: mip =   3.329455000e+00 >=   3.030633200e+00   9.0% (4435; 8613)
+365528: mip =   3.329455000e+00 >=   3.032134783e+00   8.9% (4488; 8640)
Time used: 480.2 secs.  Memory used: 86.7 Mb.
+370461: mip =   3.329455000e+00 >=   3.032400500e+00   8.9% (4516; 8680)
+380782: mip =   3.329455000e+00 >=   3.032824188e+00   8.9% (4522; 8784)
+390951: mip =   3.329455000e+00 >=   3.035346000e+00   8.8% (4500; 8883)
+396941: mip =   3.329455000e+00 >=   3.037263423e+00   8.8% (4585; 8966)
+401891: mip =   3.329455000e+00 >=   3.039129882e+00   8.7% (4613; 8996)
+406349: mip =   3.329455000e+00 >=   3.041237000e+00   8.7% (4649; 9027)
+411511: mip =   3.329455000e+00 >=   3.041515693e+00   8.6% (4690; 9070)
+415991: mip =   3.329455000e+00 >=   3.043734346e+00   8.6% (4726; 9103)
+419498: mip =   3.329455000e+00 >=   3.045704381e+00   8.5% (4765; 9133)
+425845: mip =   3.329455000e+00 >=   3.048205000e+00   8.4% (4791; 9186)
+428950: mip =   3.329455000e+00 >=   3.049394444e+00   8.4% (4793; 9216)
+433218: mip =   3.329455000e+00 >=   3.051226850e+00   8.4% (4811; 9255)
Time used: 540.2 secs.  Memory used: 103.6 Mb.
+439484: mip =   3.329455000e+00 >=   3.054585545e+00   8.3% (4813; 9341)
+444085: mip =   3.329455000e+00 >=   3.057861511e+00   8.2% (4843; 9391)
+448691: mip =   3.329455000e+00 >=   3.061739632e+00   8.0% (4880; 9441)
+454585: mip =   3.329455000e+00 >=   3.062989600e+00   8.0% (4911; 9482)
+460112: mip =   3.329455000e+00 >=   3.068427750e+00   7.8% (4908; 9545)
+465434: mip =   3.329455000e+00 >=   3.069055077e+00   7.8% (4941; 9583)
+470270: mip =   3.329455000e+00 >=   3.072279788e+00   7.7% (4962; 9628)
+476014: mip =   3.329455000e+00 >=   3.077315265e+00   7.6% (4953; 9683)
+479241: mip =   3.329455000e+00 >=   3.077491333e+00   7.6% (4931; 9724)
+481901: mip =   3.329455000e+00 >=   3.078979036e+00   7.5% (4948; 9759)
+484809: mip =   3.329455000e+00 >=   3.081025933e+00   7.5% (4973; 9792)
Time used: 600.3 secs.  Memory used: 112.4 Mb.
+490018: mip =   3.329455000e+00 >=   3.084742200e+00   7.3% (4965; 9864)
+494224: mip =   3.329455000e+00 >=   3.090609158e+00   7.2% (4975; 9909)
+499127: mip =   3.329455000e+00 >=   3.095346000e+00   7.0% (4982; 9963)
+502324: mip =   3.329455000e+00 >=   3.098539095e+00   6.9% (5005; 9994)
+504858: mip =   3.329455000e+00 >=   3.100100275e+00   6.9% (5058; 10021)
+509201: mip =   3.329455000e+00 >=   3.104455000e+00   6.8% (5050; 10132)
+513553: mip =   3.329455000e+00 >=   3.106222300e+00   6.7% (5014; 10252)
+517870: mip =   3.329455000e+00 >=   3.108928930e+00   6.6% (5058; 10306)
+521161: mip =   3.329455000e+00 >=   3.110961429e+00   6.6% (5037; 10362)
+525348: mip =   3.329455000e+00 >=   3.113564000e+00   6.5% (5041; 10413)
+529655: mip =   3.329455000e+00 >=   3.118050375e+00   6.3% (5025; 10469)
+534038: mip =   3.329455000e+00 >=   3.122099239e+00   6.2% (5003; 10541)
Time used: 660.3 secs.  Memory used: 119.6 Mb.
+538370: mip =   3.329455000e+00 >=   3.125527667e+00   6.1% (5014; 10606)
+540571: mip =   3.329455000e+00 >=   3.127107554e+00   6.1% (5051; 10633)
+546142: mip =   3.329455000e+00 >=   3.131418667e+00   5.9% (5125; 10722)
+551917: mip =   3.329455000e+00 >=   3.136064000e+00   5.8% (5108; 10816)
+554019: mip =   3.329455000e+00 >=   3.136837574e+00   5.8% (5226; 10843)
+558039: mip =   3.329455000e+00 >=   3.139981316e+00   5.7% (5219; 10901)
+561689: mip =   3.329455000e+00 >=   3.141122265e+00   5.7% (5145; 11070)
+566284: mip =   3.329455000e+00 >=   3.145548056e+00   5.5% (5153; 11143)
+569154: mip =   3.329455000e+00 >=   3.147451354e+00   5.5% (5188; 11168)
+572708: mip =   3.329455000e+00 >=   3.149480952e+00   5.4% (5180; 11241)
+577538: mip =   3.329455000e+00 >=   3.154037845e+00   5.3% (5156; 11322)
+581927: mip =   3.329455000e+00 >=   3.155852056e+00   5.2% (5125; 11398)
Time used: 720.3 secs.  Memory used: 126.8 Mb.
+588921: mip =   3.329455000e+00 >=   3.160082167e+00   5.1% (5067; 11532)
+594028: mip =   3.329455000e+00 >=   3.166172276e+00   4.9% (5010; 11657)
+601259: mip =   3.329455000e+00 >=   3.172091250e+00   4.7% (4943; 11807)
+604629: mip =   3.329455000e+00 >=   3.174124373e+00   4.7% (4978; 11841)
+608455: mip =   3.329455000e+00 >=   3.176509500e+00   4.6% (4963; 11972)
+614129: mip =   3.329455000e+00 >=   3.177107207e+00   4.6% (4944; 12075)
+621745: mip =   3.329455000e+00 >=   3.181811400e+00   4.4% (4796; 12399)
+626653: mip =   3.329455000e+00 >=   3.185346000e+00   4.3% (4722; 12865)
+627785: mip =   3.329455000e+00 >=   3.185346000e+00   4.3% (4891; 12943)
+628925: mip =   3.329455000e+00 >=   3.185346000e+00   4.3% (5061; 12999)
+630058: mip =   3.329455000e+00 >=   3.185346000e+00   4.3% (5253; 13047)
+631261: mip =   3.329455000e+00 >=   3.185346000e+00   4.3% (5426; 13121)
Time used: 780.3 secs.  Memory used: 131.1 Mb.
+632391: mip =   3.329455000e+00 >=   3.185346000e+00   4.3% (5618; 13168)
+633519: mip =   3.329455000e+00 >=   3.185346000e+00   4.3% (5819; 13214)
+634656: mip =   3.329455000e+00 >=   3.185346000e+00   4.3% (5989; 13272)
+636603: mip =   3.329455000e+00 >=   3.185346000e+00   4.3% (5900; 13689)
+637779: mip =   3.329455000e+00 >=   3.185346000e+00   4.3% (5900; 13800)
+638944: mip =   3.329455000e+00 >=   3.185346000e+00   4.3% (5903; 13933)
+640128: mip =   3.329455000e+00 >=   3.185346000e+00   4.3% (5898; 14051)
+641355: mip =   3.329455000e+00 >=   3.185346000e+00   4.3% (5907; 14177)
+642527: mip =   3.329455000e+00 >=   3.185346000e+00   4.3% (5918; 14301)
+643713: mip =   3.329455000e+00 >=   3.185346000e+00   4.3% (5914; 14412)
+644882: mip =   3.329455000e+00 >=   3.185346000e+00   4.3% (5917; 14530)
+646083: mip =   3.329455000e+00 >=   3.185346000e+00   4.3% (5920; 14663)
Time used: 840.3 secs.  Memory used: 131.2 Mb.
+647210: mip =   3.329455000e+00 >=   3.185346000e+00   4.3% (6110; 14718)
+648338: mip =   3.329455000e+00 >=   3.185346000e+00   4.3% (6309; 14761)
+649488: mip =   3.329455000e+00 >=   3.185346000e+00   4.3% (6498; 14811)
+650640: mip =   3.329455000e+00 >=   3.185346000e+00   4.3% (6657; 14888)
+651770: mip =   3.329455000e+00 >=   3.185346000e+00   4.3% (6852; 14931)
+652922: mip =   3.329455000e+00 >=   3.185346000e+00   4.3% (7032; 14987)
+654054: mip =   3.329455000e+00 >=   3.185346000e+00   4.3% (7228; 15030)
+655206: mip =   3.329455000e+00 >=   3.185346000e+00   4.3% (7381; 15104)
+656505: mip =   3.329455000e+00 >=   3.185346000e+00   4.3% (7515; 15184)
+658306: mip =   3.329455000e+00 >=   3.185346000e+00   4.3% (7525; 15398)
+659490: mip =   3.329455000e+00 >=   3.185346000e+00   4.3% (7564; 15441)
+660731: mip =   3.329455000e+00 >=   3.185346000e+00   4.3% (7645; 15479)
Time used: 900.3 secs.  Memory used: 131.8 Mb.
+662035: mip =   3.329455000e+00 >=   3.185346000e+00   4.3% (7526; 15730)
+663328: mip =   3.329455000e+00 >=   3.185346000e+00   4.3% (7422; 16208)
+664446: mip =   3.329455000e+00 >=   3.185346000e+00   4.3% (7613; 16277)
+665563: mip =   3.329455000e+00 >=   3.185346000e+00   4.3% (7796; 16349)
+666688: mip =   3.329455000e+00 >=   3.185346000e+00   4.3% (7987; 16417)
+668818: mip =   3.329455000e+00 >=   3.185346000e+00   4.3% (8049; 16735)
+671066: mip =   3.329455000e+00 >=   3.185346000e+00   4.3% (8103; 17106)
+672192: mip =   3.329455000e+00 >=   3.185346000e+00   4.3% (8292; 17181)
+673317: mip =   3.329455000e+00 >=   3.185346000e+00   4.3% (8479; 17253)
+674442: mip =   3.329455000e+00 >=   3.185346000e+00   4.3% (8670; 17321)
+676068: mip =   3.329455000e+00 >=   3.185346000e+00   4.3% (8730; 17763)
+677782: mip =   3.329455000e+00 >=   3.185346000e+00   4.3% (8729; 18538)
Time used: 960.3 secs.  Memory used: 132.6 Mb.
+679723: mip =   3.329455000e+00 >=   3.185346000e+00   4.3% (8724; 18983)
+680905: mip =   3.329455000e+00 >=   3.185346000e+00   4.3% (8720; 19120)
+682687: mip =   3.329455000e+00 >=   3.185346000e+00   4.3% (8708; 19363)
+684053: mip =   3.329455000e+00 >=   3.185346000e+00   4.3% (8706; 19500)
+685253: mip =   3.329455000e+00 >=   3.185346000e+00   4.3% (8702; 19633)
+687410: mip =   3.329455000e+00 >=   3.185346000e+00   4.3% (8674; 19944)
+690550: mip =   3.329455000e+00 >=   3.185346000e+00   4.3% (8563; 20574)
+692620: mip =   3.329455000e+00 >=   3.185346000e+00   4.3% (8547; 21236)
+694345: mip =   3.329455000e+00 >=   3.185346000e+00   4.3% (8646; 21776)
+699031: mip =   3.329455000e+00 >=   3.185346000e+00   4.3% (8503; 22314)
+703261: mip =   3.329455000e+00 >=   3.185346000e+00   4.3% (8481; 22622)
+708611: mip =   3.329455000e+00 >=   3.185346000e+00   4.3% (8430; 22968)
Time used: 1020.3 secs.  Memory used: 132.6 Mb.
+710474: mip =   3.329455000e+00 >=   3.185346000e+00   4.3% (8417; 23543)
+713404: mip =   3.329455000e+00 >=   3.185346000e+00   4.3% (8401; 23928)
+717217: mip =   3.329455000e+00 >=   3.185346000e+00   4.3% (8379; 24177)
+722934: mip =   3.329455000e+00 >=   3.185346000e+00   4.3% (8352; 24413)
+725897: mip =   3.329455000e+00 >=   3.185346000e+00   4.3% (8342; 24757)
+728766: mip =   3.329455000e+00 >=   3.185346000e+00   4.3% (8320; 24860)
+732083: mip =   3.329455000e+00 >=   3.185346000e+00   4.3% (8340; 24916)
+735063: mip =   3.329455000e+00 >=   3.185346000e+00   4.3% (8349; 24958)
+738820: mip =   3.329455000e+00 >=   3.185346000e+00   4.3% (8362; 25016)
+742412: mip =   3.329455000e+00 >=   3.185346000e+00   4.3% (8365; 25126)
+745062: mip =   3.329455000e+00 >=   3.185346000e+00   4.3% (8441; 25268)
+747662: mip =   3.329455000e+00 >=   3.185346000e+00   4.3% (8426; 25454)
Time used: 1080.3 secs.  Memory used: 132.6 Mb.
+751585: mip =   3.329455000e+00 >=   3.185346000e+00   4.3% (8419; 25554)
+754999: mip =   3.329455000e+00 >=   3.185346000e+00   4.3% (8391; 25600)
+758913: mip =   3.329455000e+00 >=   3.185346000e+00   4.3% (8401; 25665)
+763840: mip =   3.329455000e+00 >=   3.185346000e+00   4.3% (8355; 25819)
+767519: mip =   3.329455000e+00 >=   3.185346000e+00   4.3% (8353; 26076)
+770688: mip =   3.329455000e+00 >=   3.185346000e+00   4.3% (8349; 26145)
+774047: mip =   3.329455000e+00 >=   3.185346000e+00   4.3% (8331; 26206)
+779282: mip =   3.329455000e+00 >=   3.190429402e+00   4.2% (6943; 29543)
+783779: mip =   3.329455000e+00 >=   3.195074378e+00   4.0% (3758; 36942)
+788055: mip =   3.329455000e+00 >=   3.198036333e+00   3.9% (3730; 37069)
+792024: mip =   3.329455000e+00 >=   3.199938567e+00   3.9% (3650; 37347)
+796612: mip =   3.329455000e+00 >=   3.204107244e+00   3.8% (3598; 37488)
Time used: 1140.3 secs.  Memory used: 132.6 Mb.
+802101: mip =   3.329455000e+00 >=   3.207944939e+00   3.6% (3551; 37644)
+804890: mip =   3.329455000e+00 >=   3.209663205e+00   3.6% (3521; 37691)
+807664: mip =   3.329455000e+00 >=   3.211176444e+00   3.6% (3504; 37735)
+810316: mip =   3.329455000e+00 >=   3.211945217e+00   3.5% (3228; 38665)
+812210: mip =   3.329455000e+00 >=   3.211945217e+00   3.5% (3227; 38722)
+817724: mip =   3.329455000e+00 >=   3.215363079e+00   3.4% (3108; 39009)
+821166: mip =   3.329455000e+00 >=   3.217127256e+00   3.4% (3032; 39187)
+827340: mip =   3.329455000e+00 >=   3.223276800e+00   3.2% (2935; 39430)
+832561: mip =   3.329455000e+00 >=   3.226675150e+00   3.1% (2864; 39707)
+839321: mip =   3.329455000e+00 >=   3.230029400e+00   3.0% (2794; 39973)
+844856: mip =   3.329455000e+00 >=   3.235213480e+00   2.8% (2678; 40324)
+848642: mip =   3.329455000e+00 >=   3.239500417e+00   2.7% (2576; 40616)
Time used: 1200.3 secs.  Memory used: 132.6 Mb.
+854521: mip =   3.329455000e+00 >=   3.245467111e+00   2.5% (2431; 40930)
+857655: mip =   3.329455000e+00 >=   3.246962091e+00   2.5% (2463; 41067)
+863186: mip =   3.329455000e+00 >=   3.251509500e+00   2.3% (2312; 41503)
+868176: mip =   3.329455000e+00 >=   3.258177190e+00   2.1% (2141; 41988)
+875128: mip =   3.329455000e+00 >=   3.267269296e+00   1.9% (1908; 42690)
+880510: mip =   3.329455000e+00 >=   3.272743429e+00   1.7% (1767; 43058)
+885866: mip =   3.329455000e+00 >=   3.278473167e+00   1.5% (1565; 43663)
+892299: mip =   3.329455000e+00 >=   3.287989600e+00   1.2% (1293; 44530)
+900130: mip =   3.329455000e+00 >=   3.303329009e+00   0.8% (864; 46002)
+905535: mip =   3.329455000e+00 >=   3.315550864e+00   0.4% (430; 47669)
+909291: mip =   3.329455000e+00 >=     tree is empty   0.0% (0; 50601)
INTEGER OPTIMAL SOLUTION FOUND
Time used:   1249.0 secs
Memory used: 134.9 Mb (141434104 bytes)
Writing MIP solution to '/tmp/tmp_nm0ekt3.glpk.raw'...
35565 lines were written

Time in solver (for this epsilon): 1249.0480935573578 s
Elapsed time (for this epsilon): 1249.7446458339691 s


Total elapsed time since execution of first epsilon: 282942.333632946 s

Results:

E = 3.329455 mA
C = 132.0 points
C ~= 52.800000000000004 km^2

Minimum Epsilon for this instance = 11
Maximum Epsilon for this instance = 172

Current Epsilon = 132


Instance Epsilon Preprocessing Time: 0.00529789924621582 s


Updated solution vectors:
sol_E = [-0.611782,-1.061782,-1.061782,-1.061782,-1.367673,-1.511782,-1.511782,-1.817673,-2.267673,-2.573564,-2.573564,-3.329455]
sol_C = [14.0,30.0,33.0,44.0,58.0,66.0,78.0,95.0,101.0,112.0,129.0,132.0]
sol_eps = [11,22,33,44,55,66,77,88,99,110,121,132]
sol_gap = [0.0,0.0,0.0,0.0,0.0,0.0,0.0,0.0,0.0,0.0,0.0,0.0]
